\Problem name: compact

Minimize
OBJROW: C
Subject To
ord(0,1):  x(0,0) - x(0,1) >= 1
ord(0,2):  - x(0,0) + x(0,2) >= 8
ord(1,1):  - x(1,0) + x(1,1) >= 6
ord(1,2):  - x(1,1) + x(1,2) >= 10
ord(2,1):  - x(2,1) + x(2,2) >= 1
ord(2,2):  x(2,0) - x(2,2) >= 5
ord(3,1):  x(3,1) - x(3,2) >= 6
ord(3,2):  x(3,0) - x(3,1) >= 4
ord(4,1):  x(4,1) - x(4,2) >= 3
ord(4,2):  x(4,0) - x(4,1) >= 6
triangle2(0,1,0):  y(0,1,0) + y(1,0,0) = 1
triangle2(0,1,1):  y(0,1,1) + y(1,0,1) = 1
triangle2(0,1,2):  y(0,1,2) + y(1,0,2) = 1
triangle2(0,2,0):  y(0,2,0) + y(2,0,0) = 1
triangle2(0,2,1):  y(0,2,1) + y(2,0,1) = 1
triangle2(0,2,2):  y(0,2,2) + y(2,0,2) = 1
triangle2(0,3,0):  y(0,3,0) + y(3,0,0) = 1
triangle2(0,3,1):  y(0,3,1) + y(3,0,1) = 1
triangle2(0,3,2):  y(0,3,2) + y(3,0,2) = 1
triangle2(0,4,0):  y(0,4,0) + y(4,0,0) = 1
triangle2(0,4,1):  y(0,4,1) + y(4,0,1) = 1
triangle2(0,4,2):  y(0,4,2) + y(4,0,2) = 1
triangle2(1,2,0):  y(1,2,0) + y(2,1,0) = 1
triangle2(1,2,1):  y(1,2,1) + y(2,1,1) = 1
triangle2(1,2,2):  y(1,2,2) + y(2,1,2) = 1
triangle2(1,3,0):  y(1,3,0) + y(3,1,0) = 1
triangle2(1,3,1):  y(1,3,1) + y(3,1,1) = 1
triangle2(1,3,2):  y(1,3,2) + y(3,1,2) = 1
triangle2(1,4,0):  y(1,4,0) + y(4,1,0) = 1
triangle2(1,4,1):  y(1,4,1) + y(4,1,1) = 1
triangle2(1,4,2):  y(1,4,2) + y(4,1,2) = 1
triangle2(2,3,0):  y(2,3,0) + y(3,2,0) = 1
triangle2(2,3,1):  y(2,3,1) + y(3,2,1) = 1
triangle2(2,3,2):  y(2,3,2) + y(3,2,2) = 1
triangle2(2,4,0):  y(2,4,0) + y(4,2,0) = 1
triangle2(2,4,1):  y(2,4,1) + y(4,2,1) = 1
triangle2(2,4,2):  y(2,4,2) + y(4,2,2) = 1
triangle2(3,4,0):  y(3,4,0) + y(4,3,0) = 1
triangle2(3,4,1):  y(3,4,1) + y(4,3,1) = 1
triangle2(3,4,2):  y(3,4,2) + y(4,3,2) = 1
MCLinV(0,1,0):  x(0,0) - v(0,1,0) - x(1,0) = 6
MCLinV(1,0,0):  - x(0,0) - v(1,0,0) + x(1,0) = 8
MCLin1(0,1,0):  u(0,1,0) >= -0
MCLin2(0,1,0):  -62 y(1,0,0) - u(0,1,0) <= -0
MCLin3(0,1,0):  58 y(1,0,0) + v(0,1,0) - u(0,1,0) <= 58
MCLin4(0,1,0):  58 y(1,0,0) - u(0,1,0) >= -0
MCLin5(0,1,0):  -62 y(1,0,0) + v(0,1,0) - u(0,1,0) >= -62
MCLin6(1,0,0):  u(1,0,0) >= -0
MCLin7(1,0,0):  -72 y(0,1,0) - u(1,0,0) <= -0
MCLin8(1,0,0):  48 y(0,1,0) + v(1,0,0) - u(1,0,0) <= 48
MCLin9(1,0,0):  48 y(0,1,0) - u(1,0,0) >= -0
MCLin10(1,0,0):  -72 y(0,1,0) + v(1,0,0) - u(1,0,0) >= -72
MCLinV(0,1,1):  x(0,1) - v(0,1,1) - x(1,1) = 10
MCLinV(1,0,1):  - x(0,1) - v(1,0,1) + x(1,1) = 1
MCLin1(0,1,1):  u(0,1,1) >= -0
MCLin2(0,1,1):  -73 y(1,0,1) - u(0,1,1) <= -0
MCLin3(0,1,1):  47 y(1,0,1) + v(0,1,1) - u(0,1,1) <= 47
MCLin4(0,1,1):  47 y(1,0,1) - u(0,1,1) >= -0
MCLin5(0,1,1):  -73 y(1,0,1) + v(0,1,1) - u(0,1,1) >= -73
MCLin6(1,0,1):  u(1,0,1) >= -0
MCLin7(1,0,1):  -58 y(0,1,1) - u(1,0,1) <= -0
MCLin8(1,0,1):  62 y(0,1,1) + v(1,0,1) - u(1,0,1) <= 62
MCLin9(1,0,1):  62 y(0,1,1) - u(1,0,1) >= -0
MCLin10(1,0,1):  -58 y(0,1,1) + v(1,0,1) - u(1,0,1) >= -58
MCLinV(0,1,2):  x(0,2) - v(0,1,2) - x(1,2) = 5
MCLinV(1,0,2):  - x(0,2) - v(1,0,2) + x(1,2) = 6
MCLin1(0,1,2):  u(0,1,2) >= -0
MCLin2(0,1,2):  -69 y(1,0,2) - u(0,1,2) <= -0
MCLin3(0,1,2):  51 y(1,0,2) + v(0,1,2) - u(0,1,2) <= 51
MCLin4(0,1,2):  51 y(1,0,2) - u(0,1,2) >= -0
MCLin5(0,1,2):  -69 y(1,0,2) + v(0,1,2) - u(0,1,2) >= -69
MCLin6(1,0,2):  u(1,0,2) >= -0
MCLin7(1,0,2):  -62 y(0,1,2) - u(1,0,2) <= -0
MCLin8(1,0,2):  58 y(0,1,2) + v(1,0,2) - u(1,0,2) <= 58
MCLin9(1,0,2):  58 y(0,1,2) - u(1,0,2) >= -0
MCLin10(1,0,2):  -62 y(0,1,2) + v(1,0,2) - u(1,0,2) >= -62
MCLinV(0,2,0):  x(0,0) - v(0,2,0) - x(2,0) = 3
MCLinV(2,0,0):  - x(0,0) - v(2,0,0) + x(2,0) = 8
MCLin1(0,2,0):  u(0,2,0) >= -0
MCLin2(0,2,0):  -77 y(2,0,0) - u(0,2,0) <= -0
MCLin3(0,2,0):  55 y(2,0,0) + v(0,2,0) - u(0,2,0) <= 55
MCLin4(0,2,0):  55 y(2,0,0) - u(0,2,0) >= -0
MCLin5(0,2,0):  -77 y(2,0,0) + v(0,2,0) - u(0,2,0) >= -77
MCLin6(2,0,0):  u(2,0,0) >= -0
MCLin7(2,0,0):  -66 y(0,2,0) - u(2,0,0) <= -0
MCLin8(2,0,0):  66 y(0,2,0) + v(2,0,0) - u(2,0,0) <= 66
MCLin9(2,0,0):  66 y(0,2,0) - u(2,0,0) >= -0
MCLin10(2,0,0):  -66 y(0,2,0) + v(2,0,0) - u(2,0,0) >= -66
MCLinV(0,2,1):  x(0,1) - v(0,2,1) - x(2,1) = 1
MCLinV(2,0,1):  - x(0,1) - v(2,0,1) + x(2,1) = 1
MCLin1(0,2,1):  u(0,2,1) >= -0
MCLin2(0,2,1):  -70 y(2,0,1) - u(0,2,1) <= -0
MCLin3(0,2,1):  62 y(2,0,1) + v(0,2,1) - u(0,2,1) <= 62
MCLin4(0,2,1):  62 y(2,0,1) - u(0,2,1) >= -0
MCLin5(0,2,1):  -70 y(2,0,1) + v(0,2,1) - u(0,2,1) >= -70
MCLin6(2,0,1):  u(2,0,1) >= -0
MCLin7(2,0,1):  -64 y(0,2,1) - u(2,0,1) <= -0
MCLin8(2,0,1):  68 y(0,2,1) + v(2,0,1) - u(2,0,1) <= 68
MCLin9(2,0,1):  68 y(0,2,1) - u(2,0,1) >= -0
MCLin10(2,0,1):  -64 y(0,2,1) + v(2,0,1) - u(2,0,1) >= -64
MCLinV(0,2,2):  x(0,2) - v(0,2,2) - x(2,2) = 5
MCLinV(2,0,2):  - x(0,2) - v(2,0,2) + x(2,2) = 6
MCLin1(0,2,2):  u(0,2,2) >= -0
MCLin2(0,2,2):  -66 y(2,0,2) - u(0,2,2) <= -0
MCLin3(0,2,2):  66 y(2,0,2) + v(0,2,2) - u(0,2,2) <= 66
MCLin4(0,2,2):  66 y(2,0,2) - u(0,2,2) >= -0
MCLin5(0,2,2):  -66 y(2,0,2) + v(0,2,2) - u(0,2,2) >= -66
MCLin6(2,0,2):  u(2,0,2) >= -0
MCLin7(2,0,2):  -77 y(0,2,2) - u(2,0,2) <= -0
MCLin8(2,0,2):  55 y(0,2,2) + v(2,0,2) - u(2,0,2) <= 55
MCLin9(2,0,2):  55 y(0,2,2) - u(2,0,2) >= -0
MCLin10(2,0,2):  -77 y(0,2,2) + v(2,0,2) - u(2,0,2) >= -77
MCLinV(0,3,0):  x(0,0) - v(0,3,0) - x(3,0) = 7
MCLinV(3,0,0):  - x(0,0) - v(3,0,0) + x(3,0) = 8
MCLin1(0,3,0):  u(0,3,0) >= -0
MCLin2(0,3,0):  -77 y(3,0,0) - u(0,3,0) <= -0
MCLin3(0,3,0):  47 y(3,0,0) + v(0,3,0) - u(0,3,0) <= 47
MCLin4(0,3,0):  47 y(3,0,0) - u(0,3,0) >= -0
MCLin5(0,3,0):  -77 y(3,0,0) + v(0,3,0) - u(0,3,0) >= -77
MCLin6(3,0,0):  u(3,0,0) >= -0
MCLin7(3,0,0):  -62 y(0,3,0) - u(3,0,0) <= -0
MCLin8(3,0,0):  62 y(0,3,0) + v(3,0,0) - u(3,0,0) <= 62
MCLin9(3,0,0):  62 y(0,3,0) - u(3,0,0) >= -0
MCLin10(3,0,0):  -62 y(0,3,0) + v(3,0,0) - u(3,0,0) >= -62
MCLinV(0,3,1):  x(0,1) - v(0,3,1) - x(3,1) = 4
MCLinV(3,0,1):  - x(0,1) - v(3,0,1) + x(3,1) = 1
MCLin1(0,3,1):  u(0,3,1) >= -0
MCLin2(0,3,1):  -71 y(3,0,1) - u(0,3,1) <= -0
MCLin3(0,3,1):  53 y(3,0,1) + v(0,3,1) - u(0,3,1) <= 53
MCLin4(0,3,1):  53 y(3,0,1) - u(0,3,1) >= -0
MCLin5(0,3,1):  -71 y(3,0,1) + v(0,3,1) - u(0,3,1) >= -71
MCLin6(3,0,1):  u(3,0,1) >= -0
MCLin7(3,0,1):  -58 y(0,3,1) - u(3,0,1) <= -0
MCLin8(3,0,1):  66 y(0,3,1) + v(3,0,1) - u(3,0,1) <= 66
MCLin9(3,0,1):  66 y(0,3,1) - u(3,0,1) >= -0
MCLin10(3,0,1):  -58 y(0,3,1) + v(3,0,1) - u(3,0,1) >= -58
MCLinV(0,3,2):  x(0,2) - v(0,3,2) - x(3,2) = 6
MCLinV(3,0,2):  - x(0,2) - v(3,0,2) + x(3,2) = 6
MCLin1(0,3,2):  u(0,3,2) >= -0
MCLin2(0,3,2):  -58 y(3,0,2) - u(0,3,2) <= -0
MCLin3(0,3,2):  66 y(3,0,2) + v(0,3,2) - u(0,3,2) <= 66
MCLin4(0,3,2):  66 y(3,0,2) - u(0,3,2) >= -0
MCLin5(0,3,2):  -58 y(3,0,2) + v(0,3,2) - u(0,3,2) >= -58
MCLin6(3,0,2):  u(3,0,2) >= -0
MCLin7(3,0,2):  -78 y(0,3,2) - u(3,0,2) <= -0
MCLin8(3,0,2):  46 y(0,3,2) + v(3,0,2) - u(3,0,2) <= 46
MCLin9(3,0,2):  46 y(0,3,2) - u(3,0,2) >= -0
MCLin10(3,0,2):  -78 y(0,3,2) + v(3,0,2) - u(3,0,2) >= -78
MCLinV(0,4,0):  x(0,0) - v(0,4,0) - x(4,0) = 7
MCLinV(4,0,0):  - x(0,0) - v(4,0,0) + x(4,0) = 8
MCLin1(0,4,0):  u(0,4,0) >= -0
MCLin2(0,4,0):  -77 y(4,0,0) - u(0,4,0) <= -0
MCLin3(0,4,0):  48 y(4,0,0) + v(0,4,0) - u(0,4,0) <= 48
MCLin4(0,4,0):  48 y(4,0,0) - u(0,4,0) >= -0
MCLin5(0,4,0):  -77 y(4,0,0) + v(0,4,0) - u(0,4,0) >= -77
MCLin6(4,0,0):  u(4,0,0) >= -0
MCLin7(4,0,0):  -63 y(0,4,0) - u(4,0,0) <= -0
MCLin8(4,0,0):  62 y(0,4,0) + v(4,0,0) - u(4,0,0) <= 62
MCLin9(4,0,0):  62 y(0,4,0) - u(4,0,0) >= -0
MCLin10(4,0,0):  -63 y(0,4,0) + v(4,0,0) - u(4,0,0) >= -63
MCLinV(0,4,1):  x(0,1) - v(0,4,1) - x(4,1) = 6
MCLinV(4,0,1):  - x(0,1) - v(4,0,1) + x(4,1) = 1
MCLin1(0,4,1):  u(0,4,1) >= -0
MCLin2(0,4,1):  -71 y(4,0,1) - u(0,4,1) <= -0
MCLin3(0,4,1):  54 y(4,0,1) + v(0,4,1) - u(0,4,1) <= 54
MCLin4(0,4,1):  54 y(4,0,1) - u(0,4,1) >= -0
MCLin5(0,4,1):  -71 y(4,0,1) + v(0,4,1) - u(0,4,1) >= -71
MCLin6(4,0,1):  u(4,0,1) >= -0
MCLin7(4,0,1):  -61 y(0,4,1) - u(4,0,1) <= -0
MCLin8(4,0,1):  64 y(0,4,1) + v(4,0,1) - u(4,0,1) <= 64
MCLin9(4,0,1):  64 y(0,4,1) - u(4,0,1) >= -0
MCLin10(4,0,1):  -61 y(0,4,1) + v(4,0,1) - u(4,0,1) >= -61
MCLinV(0,4,2):  x(0,2) - v(0,4,2) - x(4,2) = 3
MCLinV(4,0,2):  - x(0,2) - v(4,0,2) + x(4,2) = 6
MCLin1(0,4,2):  u(0,4,2) >= -0
MCLin2(0,4,2):  -56 y(4,0,2) - u(0,4,2) <= -0
MCLin3(0,4,2):  69 y(4,0,2) + v(0,4,2) - u(0,4,2) <= 69
MCLin4(0,4,2):  69 y(4,0,2) - u(0,4,2) >= -0
MCLin5(0,4,2):  -56 y(4,0,2) + v(0,4,2) - u(0,4,2) >= -56
MCLin6(4,0,2):  u(4,0,2) >= -0
MCLin7(4,0,2):  -78 y(0,4,2) - u(4,0,2) <= -0
MCLin8(4,0,2):  47 y(0,4,2) + v(4,0,2) - u(4,0,2) <= 47
MCLin9(4,0,2):  47 y(0,4,2) - u(4,0,2) >= -0
MCLin10(4,0,2):  -78 y(0,4,2) + v(4,0,2) - u(4,0,2) >= -78
MCLinV(1,2,0):  x(1,0) - v(1,2,0) - x(2,0) = 3
MCLinV(2,1,0):  - x(1,0) - v(2,1,0) + x(2,0) = 6
MCLin1(1,2,0):  u(1,2,0) >= -0
MCLin2(1,2,0):  -78 y(2,1,0) - u(1,2,0) <= -0
MCLin3(1,2,0):  48 y(2,1,0) + v(1,2,0) - u(1,2,0) <= 48
MCLin4(1,2,0):  48 y(2,1,0) - u(1,2,0) >= -0
MCLin5(1,2,0):  -78 y(2,1,0) + v(1,2,0) - u(1,2,0) >= -78
MCLin6(2,1,0):  u(2,1,0) >= -0
MCLin7(2,1,0):  -57 y(1,2,0) - u(2,1,0) <= -0
MCLin8(2,1,0):  69 y(1,2,0) + v(2,1,0) - u(2,1,0) <= 69
MCLin9(2,1,0):  69 y(1,2,0) - u(2,1,0) >= -0
MCLin10(2,1,0):  -57 y(1,2,0) + v(2,1,0) - u(2,1,0) >= -57
MCLinV(1,2,1):  x(1,1) - v(1,2,1) - x(2,1) = 1
MCLinV(2,1,1):  - x(1,1) - v(2,1,1) + x(2,1) = 10
MCLin1(1,2,1):  u(1,2,1) >= -0
MCLin2(1,2,1):  -64 y(2,1,1) - u(1,2,1) <= -0
MCLin3(1,2,1):  62 y(2,1,1) + v(1,2,1) - u(1,2,1) <= 62
MCLin4(1,2,1):  62 y(2,1,1) - u(1,2,1) >= -0
MCLin5(1,2,1):  -64 y(2,1,1) + v(1,2,1) - u(1,2,1) >= -64
MCLin6(2,1,1):  u(2,1,1) >= -0
MCLin7(2,1,1):  -73 y(1,2,1) - u(2,1,1) <= -0
MCLin8(2,1,1):  53 y(1,2,1) + v(2,1,1) - u(2,1,1) <= 53
MCLin9(2,1,1):  53 y(1,2,1) - u(2,1,1) >= -0
MCLin10(2,1,1):  -73 y(1,2,1) + v(2,1,1) - u(2,1,1) >= -73
MCLinV(1,2,2):  x(1,2) - v(1,2,2) - x(2,2) = 5
MCLinV(2,1,2):  - x(1,2) - v(2,1,2) + x(2,2) = 5
MCLin1(1,2,2):  u(1,2,2) >= -0
MCLin2(1,2,2):  -59 y(2,1,2) - u(1,2,2) <= -0
MCLin3(1,2,2):  67 y(2,1,2) + v(1,2,2) - u(1,2,2) <= 67
MCLin4(1,2,2):  67 y(2,1,2) - u(1,2,2) >= -0
MCLin5(1,2,2):  -59 y(2,1,2) + v(1,2,2) - u(1,2,2) >= -59
MCLin6(2,1,2):  u(2,1,2) >= -0
MCLin7(2,1,2):  -77 y(1,2,2) - u(2,1,2) <= -0
MCLin8(2,1,2):  49 y(1,2,2) + v(2,1,2) - u(2,1,2) <= 49
MCLin9(2,1,2):  49 y(1,2,2) - u(2,1,2) >= -0
MCLin10(2,1,2):  -77 y(1,2,2) + v(2,1,2) - u(2,1,2) >= -77
MCLinV(1,3,0):  x(1,0) - v(1,3,0) - x(3,0) = 7
MCLinV(3,1,0):  - x(1,0) - v(3,1,0) + x(3,0) = 6
MCLin1(1,3,0):  u(1,3,0) >= -0
MCLin2(1,3,0):  -78 y(3,1,0) - u(1,3,0) <= -0
MCLin3(1,3,0):  40 y(3,1,0) + v(1,3,0) - u(1,3,0) <= 40
MCLin4(1,3,0):  40 y(3,1,0) - u(1,3,0) >= -0
MCLin5(1,3,0):  -78 y(3,1,0) + v(1,3,0) - u(1,3,0) >= -78
MCLin6(3,1,0):  u(3,1,0) >= -0
MCLin7(3,1,0):  -53 y(1,3,0) - u(3,1,0) <= -0
MCLin8(3,1,0):  65 y(1,3,0) + v(3,1,0) - u(3,1,0) <= 65
MCLin9(3,1,0):  65 y(1,3,0) - u(3,1,0) >= -0
MCLin10(3,1,0):  -53 y(1,3,0) + v(3,1,0) - u(3,1,0) >= -53
MCLinV(1,3,1):  x(1,1) - v(1,3,1) - x(3,1) = 4
MCLinV(3,1,1):  - x(1,1) - v(3,1,1) + x(3,1) = 10
MCLin1(1,3,1):  u(1,3,1) >= -0
MCLin2(1,3,1):  -65 y(3,1,1) - u(1,3,1) <= -0
MCLin3(1,3,1):  53 y(3,1,1) + v(1,3,1) - u(1,3,1) <= 53
MCLin4(1,3,1):  53 y(3,1,1) - u(1,3,1) >= -0
MCLin5(1,3,1):  -65 y(3,1,1) + v(1,3,1) - u(1,3,1) >= -65
MCLin6(3,1,1):  u(3,1,1) >= -0
MCLin7(3,1,1):  -67 y(1,3,1) - u(3,1,1) <= -0
MCLin8(3,1,1):  51 y(1,3,1) + v(3,1,1) - u(3,1,1) <= 51
MCLin9(3,1,1):  51 y(1,3,1) - u(3,1,1) >= -0
MCLin10(3,1,1):  -67 y(1,3,1) + v(3,1,1) - u(3,1,1) >= -67
MCLinV(1,3,2):  x(1,2) - v(1,3,2) - x(3,2) = 6
MCLinV(3,1,2):  - x(1,2) - v(3,1,2) + x(3,2) = 5
MCLin1(1,3,2):  u(1,3,2) >= -0
MCLin2(1,3,2):  -51 y(3,1,2) - u(1,3,2) <= -0
MCLin3(1,3,2):  67 y(3,1,2) + v(1,3,2) - u(1,3,2) <= 67
MCLin4(1,3,2):  67 y(3,1,2) - u(1,3,2) >= -0
MCLin5(1,3,2):  -51 y(3,1,2) + v(1,3,2) - u(1,3,2) >= -51
MCLin6(3,1,2):  u(3,1,2) >= -0
MCLin7(3,1,2):  -78 y(1,3,2) - u(3,1,2) <= -0
MCLin8(3,1,2):  40 y(1,3,2) + v(3,1,2) - u(3,1,2) <= 40
MCLin9(3,1,2):  40 y(1,3,2) - u(3,1,2) >= -0
MCLin10(3,1,2):  -78 y(1,3,2) + v(3,1,2) - u(3,1,2) >= -78
MCLinV(1,4,0):  x(1,0) - v(1,4,0) - x(4,0) = 7
MCLinV(4,1,0):  - x(1,0) - v(4,1,0) + x(4,0) = 6
MCLin1(1,4,0):  u(1,4,0) >= -0
MCLin2(1,4,0):  -78 y(4,1,0) - u(1,4,0) <= -0
MCLin3(1,4,0):  41 y(4,1,0) + v(1,4,0) - u(1,4,0) <= 41
MCLin4(1,4,0):  41 y(4,1,0) - u(1,4,0) >= -0
MCLin5(1,4,0):  -78 y(4,1,0) + v(1,4,0) - u(1,4,0) >= -78
MCLin6(4,1,0):  u(4,1,0) >= -0
MCLin7(4,1,0):  -54 y(1,4,0) - u(4,1,0) <= -0
MCLin8(4,1,0):  65 y(1,4,0) + v(4,1,0) - u(4,1,0) <= 65
MCLin9(4,1,0):  65 y(1,4,0) - u(4,1,0) >= -0
MCLin10(4,1,0):  -54 y(1,4,0) + v(4,1,0) - u(4,1,0) >= -54
MCLinV(1,4,1):  x(1,1) - v(1,4,1) - x(4,1) = 6
MCLinV(4,1,1):  - x(1,1) - v(4,1,1) + x(4,1) = 10
MCLin1(1,4,1):  u(1,4,1) >= -0
MCLin2(1,4,1):  -65 y(4,1,1) - u(1,4,1) <= -0
MCLin3(1,4,1):  54 y(4,1,1) + v(1,4,1) - u(1,4,1) <= 54
MCLin4(1,4,1):  54 y(4,1,1) - u(1,4,1) >= -0
MCLin5(1,4,1):  -65 y(4,1,1) + v(1,4,1) - u(1,4,1) >= -65
MCLin6(4,1,1):  u(4,1,1) >= -0
MCLin7(4,1,1):  -70 y(1,4,1) - u(4,1,1) <= -0
MCLin8(4,1,1):  49 y(1,4,1) + v(4,1,1) - u(4,1,1) <= 49
MCLin9(4,1,1):  49 y(1,4,1) - u(4,1,1) >= -0
MCLin10(4,1,1):  -70 y(1,4,1) + v(4,1,1) - u(4,1,1) >= -70
MCLinV(1,4,2):  x(1,2) - v(1,4,2) - x(4,2) = 3
MCLinV(4,1,2):  - x(1,2) - v(4,1,2) + x(4,2) = 5
MCLin1(1,4,2):  u(1,4,2) >= -0
MCLin2(1,4,2):  -49 y(4,1,2) - u(1,4,2) <= -0
MCLin3(1,4,2):  70 y(4,1,2) + v(1,4,2) - u(1,4,2) <= 70
MCLin4(1,4,2):  70 y(4,1,2) - u(1,4,2) >= -0
MCLin5(1,4,2):  -49 y(4,1,2) + v(1,4,2) - u(1,4,2) >= -49
MCLin6(4,1,2):  u(4,1,2) >= -0
MCLin7(4,1,2):  -78 y(1,4,2) - u(4,1,2) <= -0
MCLin8(4,1,2):  41 y(1,4,2) + v(4,1,2) - u(4,1,2) <= 41
MCLin9(4,1,2):  41 y(1,4,2) - u(4,1,2) >= -0
MCLin10(4,1,2):  -78 y(1,4,2) + v(4,1,2) - u(4,1,2) >= -78
MCLinV(2,3,0):  x(2,0) - v(2,3,0) - x(3,0) = 7
MCLinV(3,2,0):  - x(2,0) - v(3,2,0) + x(3,0) = 3
MCLin1(2,3,0):  u(2,3,0) >= -0
MCLin2(2,3,0):  -72 y(3,2,0) - u(2,3,0) <= -0
MCLin3(2,3,0):  58 y(3,2,0) + v(2,3,0) - u(2,3,0) <= 58
MCLin4(2,3,0):  58 y(3,2,0) - u(2,3,0) >= -0
MCLin5(2,3,0):  -72 y(3,2,0) + v(2,3,0) - u(2,3,0) >= -72
MCLin6(3,2,0):  u(3,2,0) >= -0
MCLin7(3,2,0):  -68 y(2,3,0) - u(3,2,0) <= -0
MCLin8(3,2,0):  62 y(2,3,0) + v(3,2,0) - u(3,2,0) <= 62
MCLin9(3,2,0):  62 y(2,3,0) - u(3,2,0) >= -0
MCLin10(3,2,0):  -68 y(2,3,0) + v(3,2,0) - u(3,2,0) >= -68
MCLinV(2,3,1):  x(2,1) - v(2,3,1) - x(3,1) = 4
MCLinV(3,2,1):  - x(2,1) - v(3,2,1) + x(3,1) = 1
MCLin1(2,3,1):  u(2,3,1) >= -0
MCLin2(2,3,1):  -71 y(3,2,1) - u(2,3,1) <= -0
MCLin3(2,3,1):  59 y(3,2,1) + v(2,3,1) - u(2,3,1) <= 59
MCLin4(2,3,1):  59 y(3,2,1) - u(2,3,1) >= -0
MCLin5(2,3,1):  -71 y(3,2,1) + v(2,3,1) - u(2,3,1) >= -71
MCLin6(3,2,1):  u(3,2,1) >= -0
MCLin7(3,2,1):  -64 y(2,3,1) - u(3,2,1) <= -0
MCLin8(3,2,1):  66 y(2,3,1) + v(3,2,1) - u(3,2,1) <= 66
MCLin9(3,2,1):  66 y(2,3,1) - u(3,2,1) >= -0
MCLin10(3,2,1):  -64 y(2,3,1) + v(3,2,1) - u(3,2,1) >= -64
MCLinV(2,3,2):  x(2,2) - v(2,3,2) - x(3,2) = 6
MCLinV(3,2,2):  - x(2,2) - v(3,2,2) + x(3,2) = 5
MCLin1(2,3,2):  u(2,3,2) >= -0
MCLin2(2,3,2):  -66 y(3,2,2) - u(2,3,2) <= -0
MCLin3(2,3,2):  64 y(3,2,2) + v(2,3,2) - u(2,3,2) <= 64
MCLin4(2,3,2):  64 y(3,2,2) - u(2,3,2) >= -0
MCLin5(2,3,2):  -66 y(3,2,2) + v(2,3,2) - u(2,3,2) >= -66
MCLin6(3,2,2):  u(3,2,2) >= -0
MCLin7(3,2,2):  -75 y(2,3,2) - u(3,2,2) <= -0
MCLin8(3,2,2):  55 y(2,3,2) + v(3,2,2) - u(3,2,2) <= 55
MCLin9(3,2,2):  55 y(2,3,2) - u(3,2,2) >= -0
MCLin10(3,2,2):  -75 y(2,3,2) + v(3,2,2) - u(3,2,2) >= -75
MCLinV(2,4,0):  x(2,0) - v(2,4,0) - x(4,0) = 7
MCLinV(4,2,0):  - x(2,0) - v(4,2,0) + x(4,0) = 3
MCLin1(2,4,0):  u(2,4,0) >= -0
MCLin2(2,4,0):  -72 y(4,2,0) - u(2,4,0) <= -0
MCLin3(2,4,0):  59 y(4,2,0) + v(2,4,0) - u(2,4,0) <= 59
MCLin4(2,4,0):  59 y(4,2,0) - u(2,4,0) >= -0
MCLin5(2,4,0):  -72 y(4,2,0) + v(2,4,0) - u(2,4,0) >= -72
MCLin6(4,2,0):  u(4,2,0) >= -0
MCLin7(4,2,0):  -69 y(2,4,0) - u(4,2,0) <= -0
MCLin8(4,2,0):  62 y(2,4,0) + v(4,2,0) - u(4,2,0) <= 62
MCLin9(4,2,0):  62 y(2,4,0) - u(4,2,0) >= -0
MCLin10(4,2,0):  -69 y(2,4,0) + v(4,2,0) - u(4,2,0) >= -69
MCLinV(2,4,1):  x(2,1) - v(2,4,1) - x(4,1) = 6
MCLinV(4,2,1):  - x(2,1) - v(4,2,1) + x(4,1) = 1
MCLin1(2,4,1):  u(2,4,1) >= -0
MCLin2(2,4,1):  -71 y(4,2,1) - u(2,4,1) <= -0
MCLin3(2,4,1):  60 y(4,2,1) + v(2,4,1) - u(2,4,1) <= 60
MCLin4(2,4,1):  60 y(4,2,1) - u(2,4,1) >= -0
MCLin5(2,4,1):  -71 y(4,2,1) + v(2,4,1) - u(2,4,1) >= -71
MCLin6(4,2,1):  u(4,2,1) >= -0
MCLin7(4,2,1):  -67 y(2,4,1) - u(4,2,1) <= -0
MCLin8(4,2,1):  64 y(2,4,1) + v(4,2,1) - u(4,2,1) <= 64
MCLin9(4,2,1):  64 y(2,4,1) - u(4,2,1) >= -0
MCLin10(4,2,1):  -67 y(2,4,1) + v(4,2,1) - u(4,2,1) >= -67
MCLinV(2,4,2):  x(2,2) - v(2,4,2) - x(4,2) = 3
MCLinV(4,2,2):  - x(2,2) - v(4,2,2) + x(4,2) = 5
MCLin1(2,4,2):  u(2,4,2) >= -0
MCLin2(2,4,2):  -64 y(4,2,2) - u(2,4,2) <= -0
MCLin3(2,4,2):  67 y(4,2,2) + v(2,4,2) - u(2,4,2) <= 67
MCLin4(2,4,2):  67 y(4,2,2) - u(2,4,2) >= -0
MCLin5(2,4,2):  -64 y(4,2,2) + v(2,4,2) - u(2,4,2) >= -64
MCLin6(4,2,2):  u(4,2,2) >= -0
MCLin7(4,2,2):  -75 y(2,4,2) - u(4,2,2) <= -0
MCLin8(4,2,2):  56 y(2,4,2) + v(4,2,2) - u(4,2,2) <= 56
MCLin9(4,2,2):  56 y(2,4,2) - u(4,2,2) >= -0
MCLin10(4,2,2):  -75 y(2,4,2) + v(4,2,2) - u(4,2,2) >= -75
MCLinV(3,4,0):  x(3,0) - v(3,4,0) - x(4,0) = 7
MCLinV(4,3,0):  - x(3,0) - v(4,3,0) + x(4,0) = 7
MCLin1(3,4,0):  u(3,4,0) >= -0
MCLin2(3,4,0):  -68 y(4,3,0) - u(3,4,0) <= -0
MCLin3(3,4,0):  55 y(4,3,0) + v(3,4,0) - u(3,4,0) <= 55
MCLin4(3,4,0):  55 y(4,3,0) - u(3,4,0) >= -0
MCLin5(3,4,0):  -68 y(4,3,0) + v(3,4,0) - u(3,4,0) >= -68
MCLin6(4,3,0):  u(4,3,0) >= -0
MCLin7(4,3,0):  -69 y(3,4,0) - u(4,3,0) <= -0
MCLin8(4,3,0):  54 y(3,4,0) + v(4,3,0) - u(4,3,0) <= 54
MCLin9(4,3,0):  54 y(3,4,0) - u(4,3,0) >= -0
MCLin10(4,3,0):  -69 y(3,4,0) + v(4,3,0) - u(4,3,0) >= -69
MCLinV(3,4,1):  x(3,1) - v(3,4,1) - x(4,1) = 6
MCLinV(4,3,1):  - x(3,1) - v(4,3,1) + x(4,1) = 4
MCLin1(3,4,1):  u(3,4,1) >= -0
MCLin2(3,4,1):  -65 y(4,3,1) - u(3,4,1) <= -0
MCLin3(3,4,1):  58 y(4,3,1) + v(3,4,1) - u(3,4,1) <= 58
MCLin4(3,4,1):  58 y(4,3,1) - u(3,4,1) >= -0
MCLin5(3,4,1):  -65 y(4,3,1) + v(3,4,1) - u(3,4,1) >= -65
MCLin6(4,3,1):  u(4,3,1) >= -0
MCLin7(4,3,1):  -68 y(3,4,1) - u(4,3,1) <= -0
MCLin8(4,3,1):  55 y(3,4,1) + v(4,3,1) - u(4,3,1) <= 55
MCLin9(4,3,1):  55 y(3,4,1) - u(4,3,1) >= -0
MCLin10(4,3,1):  -68 y(3,4,1) + v(4,3,1) - u(4,3,1) >= -68
MCLinV(3,4,2):  x(3,2) - v(3,4,2) - x(4,2) = 3
MCLinV(4,3,2):  - x(3,2) - v(4,3,2) + x(4,2) = 6
MCLin1(3,4,2):  u(3,4,2) >= -0
MCLin2(3,4,2):  -65 y(4,3,2) - u(3,4,2) <= -0
MCLin3(3,4,2):  58 y(4,3,2) + v(3,4,2) - u(3,4,2) <= 58
MCLin4(3,4,2):  58 y(4,3,2) - u(3,4,2) >= -0
MCLin5(3,4,2):  -65 y(4,3,2) + v(3,4,2) - u(3,4,2) >= -65
MCLin6(4,3,2):  u(4,3,2) >= -0
MCLin7(4,3,2):  -67 y(3,4,2) - u(4,3,2) <= -0
MCLin8(4,3,2):  56 y(3,4,2) + v(4,3,2) - u(4,3,2) <= 56
MCLin9(4,3,2):  56 y(3,4,2) - u(4,3,2) >= -0
MCLin10(4,3,2):  -67 y(3,4,2) + v(4,3,2) - u(4,3,2) >= -67
makespan(0):  C - x(0,2) >= 6
makespan(1):  C - x(1,2) >= 5
makespan(2):  C - x(2,0) >= 3
makespan(3):  C - x(3,0) >= 7
makespan(4):  C - x(4,0) >= 7
Bounds
 0 <= C <= 78
 1 <= x(0,0) <= 64
 0 <= y(0,1,0) <= 1
 0 <= y(1,0,0) <= 1
 -62 <= v(0,1,0) <= 58
 -72 <= v(1,0,0) <= 48
 -780 <= u(0,1,0)
 -780 <= u(1,0,0)
 0 <= y(0,2,0) <= 1
 0 <= y(2,0,0) <= 1
 -77 <= v(0,2,0) <= 55
 -66 <= v(2,0,0) <= 66
 -780 <= u(0,2,0)
 -780 <= u(2,0,0)
 0 <= y(0,3,0) <= 1
 0 <= y(3,0,0) <= 1
 -77 <= v(0,3,0) <= 47
 -62 <= v(3,0,0) <= 62
 -780 <= u(0,3,0)
 -780 <= u(3,0,0)
 0 <= y(0,4,0) <= 1
 0 <= y(4,0,0) <= 1
 -77 <= v(0,4,0) <= 48
 -63 <= v(4,0,0) <= 62
 -780 <= u(0,4,0)
 -780 <= u(4,0,0)
 0 <= x(1,0) <= 57
 0 <= y(1,2,0) <= 1
 0 <= y(2,1,0) <= 1
 -78 <= v(1,2,0) <= 48
 -57 <= v(2,1,0) <= 69
 -780 <= u(1,2,0)
 -780 <= u(2,1,0)
 0 <= y(1,3,0) <= 1
 0 <= y(3,1,0) <= 1
 -78 <= v(1,3,0) <= 40
 -53 <= v(3,1,0) <= 65
 -780 <= u(1,3,0)
 -780 <= u(3,1,0)
 0 <= y(1,4,0) <= 1
 0 <= y(4,1,0) <= 1
 -78 <= v(1,4,0) <= 41
 -54 <= v(4,1,0) <= 65
 -780 <= u(1,4,0)
 -780 <= u(4,1,0)
 6 <= x(2,0) <= 75
 0 <= y(2,3,0) <= 1
 0 <= y(3,2,0) <= 1
 -72 <= v(2,3,0) <= 58
 -68 <= v(3,2,0) <= 62
 -780 <= u(2,3,0)
 -780 <= u(3,2,0)
 0 <= y(2,4,0) <= 1
 0 <= y(4,2,0) <= 1
 -72 <= v(2,4,0) <= 59
 -69 <= v(4,2,0) <= 62
 -780 <= u(2,4,0)
 -780 <= u(4,2,0)
 10 <= x(3,0) <= 71
 0 <= y(3,4,0) <= 1
 0 <= y(4,3,0) <= 1
 -68 <= v(3,4,0) <= 55
 -69 <= v(4,3,0) <= 54
 -780 <= u(3,4,0)
 -780 <= u(4,3,0)
 9 <= x(4,0) <= 71
 0 <= x(0,1) <= 63
 0 <= y(0,1,1) <= 1
 0 <= y(1,0,1) <= 1
 -73 <= v(0,1,1) <= 47
 -58 <= v(1,0,1) <= 62
 -780 <= u(0,1,1)
 -780 <= u(1,0,1)
 0 <= y(0,2,1) <= 1
 0 <= y(2,0,1) <= 1
 -70 <= v(0,2,1) <= 62
 -64 <= v(2,0,1) <= 68
 -780 <= u(0,2,1)
 -780 <= u(2,0,1)
 0 <= y(0,3,1) <= 1
 0 <= y(3,0,1) <= 1
 -71 <= v(0,3,1) <= 53
 -58 <= v(3,0,1) <= 66
 -780 <= u(0,3,1)
 -780 <= u(3,0,1)
 0 <= y(0,4,1) <= 1
 0 <= y(4,0,1) <= 1
 -71 <= v(0,4,1) <= 54
 -61 <= v(4,0,1) <= 64
 -780 <= u(0,4,1)
 -780 <= u(4,0,1)
 6 <= x(1,1) <= 63
 0 <= y(1,2,1) <= 1
 0 <= y(2,1,1) <= 1
 -64 <= v(1,2,1) <= 62
 -73 <= v(2,1,1) <= 53
 -780 <= u(1,2,1)
 -780 <= u(2,1,1)
 0 <= y(1,3,1) <= 1
 0 <= y(3,1,1) <= 1
 -65 <= v(1,3,1) <= 53
 -67 <= v(3,1,1) <= 51
 -780 <= u(1,3,1)
 -780 <= u(3,1,1)
 0 <= y(1,4,1) <= 1
 0 <= y(4,1,1) <= 1
 -65 <= v(1,4,1) <= 54
 -70 <= v(4,1,1) <= 49
 -780 <= u(1,4,1)
 -780 <= u(4,1,1)
 0 <= x(2,1) <= 69
 0 <= y(2,3,1) <= 1
 0 <= y(3,2,1) <= 1
 -71 <= v(2,3,1) <= 59
 -64 <= v(3,2,1) <= 66
 -780 <= u(2,3,1)
 -780 <= u(3,2,1)
 0 <= y(2,4,1) <= 1
 0 <= y(4,2,1) <= 1
 -71 <= v(2,4,1) <= 60
 -67 <= v(4,2,1) <= 64
 -780 <= u(2,4,1)
 -780 <= u(4,2,1)
 6 <= x(3,1) <= 67
 0 <= y(3,4,1) <= 1
 0 <= y(4,3,1) <= 1
 -65 <= v(3,4,1) <= 58
 -68 <= v(4,3,1) <= 55
 -780 <= u(3,4,1)
 -780 <= u(4,3,1)
 3 <= x(4,1) <= 65
 9 <= x(0,2) <= 72
 0 <= y(0,1,2) <= 1
 0 <= y(1,0,2) <= 1
 -69 <= v(0,1,2) <= 51
 -62 <= v(1,0,2) <= 58
 -780 <= u(0,1,2)
 -780 <= u(1,0,2)
 0 <= y(0,2,2) <= 1
 0 <= y(2,0,2) <= 1
 -66 <= v(0,2,2) <= 66
 -77 <= v(2,0,2) <= 55
 -780 <= u(0,2,2)
 -780 <= u(2,0,2)
 0 <= y(0,3,2) <= 1
 0 <= y(3,0,2) <= 1
 -58 <= v(0,3,2) <= 66
 -78 <= v(3,0,2) <= 46
 -780 <= u(0,3,2)
 -780 <= u(3,0,2)
 0 <= y(0,4,2) <= 1
 0 <= y(4,0,2) <= 1
 -56 <= v(0,4,2) <= 69
 -78 <= v(4,0,2) <= 47
 -780 <= u(0,4,2)
 -780 <= u(4,0,2)
 16 <= x(1,2) <= 73
 0 <= y(1,2,2) <= 1
 0 <= y(2,1,2) <= 1
 -59 <= v(1,2,2) <= 67
 -77 <= v(2,1,2) <= 49
 -780 <= u(1,2,2)
 -780 <= u(2,1,2)
 0 <= y(1,3,2) <= 1
 0 <= y(3,1,2) <= 1
 -51 <= v(1,3,2) <= 67
 -78 <= v(3,1,2) <= 40
 -780 <= u(1,3,2)
 -780 <= u(3,1,2)
 0 <= y(1,4,2) <= 1
 0 <= y(4,1,2) <= 1
 -49 <= v(1,4,2) <= 70
 -78 <= v(4,1,2) <= 41
 -780 <= u(1,4,2)
 -780 <= u(4,1,2)
 1 <= x(2,2) <= 70
 0 <= y(2,3,2) <= 1
 0 <= y(3,2,2) <= 1
 -66 <= v(2,3,2) <= 64
 -75 <= v(3,2,2) <= 55
 -780 <= u(2,3,2)
 -780 <= u(3,2,2)
 0 <= y(2,4,2) <= 1
 0 <= y(4,2,2) <= 1
 -64 <= v(2,4,2) <= 67
 -75 <= v(4,2,2) <= 56
 -780 <= u(2,4,2)
 -780 <= u(4,2,2)
 0 <= x(3,2) <= 61
 0 <= y(3,4,2) <= 1
 0 <= y(4,3,2) <= 1
 -65 <= v(3,4,2) <= 58
 -67 <= v(4,3,2) <= 56
 -780 <= u(3,4,2)
 -780 <= u(4,3,2)
 0 <= x(4,2) <= 62
Integers
C x(0,0) y(0,1,0) y(1,0,0) v(0,1,0) v(1,0,0) u(0,1,0) u(1,0,0) y(0,2,0) y(2,0,0) 
v(0,2,0) v(2,0,0) u(0,2,0) u(2,0,0) y(0,3,0) y(3,0,0) v(0,3,0) v(3,0,0) u(0,3,0) u(3,0,0) 
y(0,4,0) y(4,0,0) v(0,4,0) v(4,0,0) u(0,4,0) u(4,0,0) x(1,0) y(1,2,0) y(2,1,0) v(1,2,0) 
v(2,1,0) u(1,2,0) u(2,1,0) y(1,3,0) y(3,1,0) v(1,3,0) v(3,1,0) u(1,3,0) u(3,1,0) y(1,4,0) 
y(4,1,0) v(1,4,0) v(4,1,0) u(1,4,0) u(4,1,0) x(2,0) y(2,3,0) y(3,2,0) v(2,3,0) v(3,2,0) 
u(2,3,0) u(3,2,0) y(2,4,0) y(4,2,0) v(2,4,0) v(4,2,0) u(2,4,0) u(4,2,0) x(3,0) y(3,4,0) 
y(4,3,0) v(3,4,0) v(4,3,0) u(3,4,0) u(4,3,0) x(4,0) x(0,1) y(0,1,1) y(1,0,1) v(0,1,1) 
v(1,0,1) u(0,1,1) u(1,0,1) y(0,2,1) y(2,0,1) v(0,2,1) v(2,0,1) u(0,2,1) u(2,0,1) y(0,3,1) 
y(3,0,1) v(0,3,1) v(3,0,1) u(0,3,1) u(3,0,1) y(0,4,1) y(4,0,1) v(0,4,1) v(4,0,1) u(0,4,1) 
u(4,0,1) x(1,1) y(1,2,1) y(2,1,1) v(1,2,1) v(2,1,1) u(1,2,1) u(2,1,1) y(1,3,1) y(3,1,1) 
v(1,3,1) v(3,1,1) u(1,3,1) u(3,1,1) y(1,4,1) y(4,1,1) v(1,4,1) v(4,1,1) u(1,4,1) u(4,1,1) 
x(2,1) y(2,3,1) y(3,2,1) v(2,3,1) v(3,2,1) u(2,3,1) u(3,2,1) y(2,4,1) y(4,2,1) v(2,4,1) 
v(4,2,1) u(2,4,1) u(4,2,1) x(3,1) y(3,4,1) y(4,3,1) v(3,4,1) v(4,3,1) u(3,4,1) u(4,3,1) 
x(4,1) x(0,2) y(0,1,2) y(1,0,2) v(0,1,2) v(1,0,2) u(0,1,2) u(1,0,2) y(0,2,2) y(2,0,2) 
v(0,2,2) v(2,0,2) u(0,2,2) u(2,0,2) y(0,3,2) y(3,0,2) v(0,3,2) v(3,0,2) u(0,3,2) u(3,0,2) 
y(0,4,2) y(4,0,2) v(0,4,2) v(4,0,2) u(0,4,2) u(4,0,2) x(1,2) y(1,2,2) y(2,1,2) v(1,2,2) 
v(2,1,2) u(1,2,2) u(2,1,2) y(1,3,2) y(3,1,2) v(1,3,2) v(3,1,2) u(1,3,2) u(3,1,2) y(1,4,2) 
y(4,1,2) v(1,4,2) v(4,1,2) u(1,4,2) u(4,1,2) x(2,2) y(2,3,2) y(3,2,2) v(2,3,2) v(3,2,2) 
u(2,3,2) u(3,2,2) y(2,4,2) y(4,2,2) v(2,4,2) v(4,2,2) u(2,4,2) u(4,2,2) x(3,2) y(3,4,2) 
y(4,3,2) v(3,4,2) v(4,3,2) u(3,4,2) u(4,3,2) x(4,2) 
End
